results/res_prop_muc/res_Cimatti_mathsat_cores/QF_LRA/fs_no_op_accs.base.smt.smt2.res
unsat
( c100
  c101
  c1011
  c1015
  c1019
  c102
  c1023
  c1025
  c1027
  c1028
  c1029
  c103
  c1031
  c1032
  c1068
  c1070
  c1072
  c1073
  c1079
  c1142
  c1162
  c1168
  c12
  c1237
  c1248
  c1266
  c1312
  c1426
  c1454
  c1456
  c1489
  c1493
  c1523
  c1526
  c1527
  c1543
  c1547
  c1550
  c1554
  c1557
  c1559
  c1560
  c1561
  c1563
  c1564
  c1566
  c1567
  c1568
  c1570
  c1571
  c1577
  c1590
  c1591
  c1595
  c1632
  c1633
  c1634
  c171
  c20
  c21
  c241
  c270
  c298
  c302
  c307
  c311
  c322
  c323
  c37
  c38
  c440
  c441
  c458
  c526
  c561
  c572
  c581
  c644
  c670
  c773
  c80
  c81
  c814
  c82
  c83
  c84
  c85
  c89
  c9
  c91
  c92
  c928
  c95
  c956
  c96
  c97
  c98
  c99
  c991
  c995 )
